(declare-const X String)
; \b[A-z0-9._%-]+@[A-Z0-9.-]+\.[A-Z]{2,4}\b
(assert (str.in.re X (re.++ (re.+ (re.union (re.range "A" "z") (re.range "0" "9") (str.to.re ".") (str.to.re "_") (str.to.re "%") (str.to.re "-"))) (str.to.re "@") (re.+ (re.union (re.range "A" "Z") (re.range "0" "9") (str.to.re ".") (str.to.re "-"))) (str.to.re ".") ((_ re.loop 2 4) (re.range "A" "Z")) (str.to.re "\x0a"))))
; /filename=[^\n]*\x2epict/i
(assert (not (str.in.re X (re.++ (str.to.re "/filename=") (re.* (re.comp (str.to.re "\x0a"))) (str.to.re ".pict/i\x0a")))))
; User-Agent\x3a\s+sErver\s+-~-GREATHost\x3a
(assert (str.in.re X (re.++ (str.to.re "User-Agent:") (re.+ (re.union (str.to.re " ") (str.to.re "\x09") (str.to.re "\x0a") (str.to.re "\x0c") (str.to.re "\x0d"))) (str.to.re "sErver") (re.+ (re.union (str.to.re " ") (str.to.re "\x09") (str.to.re "\x0a") (str.to.re "\x0c") (str.to.re "\x0d"))) (str.to.re "-~-GREATHost:\x0a"))))
; [\t ]+
(assert (str.in.re X (re.++ (re.+ (re.union (str.to.re "\x09") (str.to.re " "))) (str.to.re "\x0a"))))
(check-sat)
